

(declare-sort |dff_s| 0)
(declare-fun |dff_is| (|dff_s|) Bool)
(declare-fun |dff#0| (|dff_s|) Bool) 


(define-fun |dff_n CK| ((state |dff_s|)) Bool (|dff#0| state))
(declare-fun |dff#1| (|dff_s|) Bool) 


(define-fun |dff_n D| ((state |dff_s|)) Bool (|dff#1| state))
(define-fun |dff#2| ((state |dff_s|)) (_ BitVec 1) (bvnot (ite (|dff#0| state) #b1 #b0))) 
(define-fun |dff#3| ((state |dff_s|)) (_ BitVec 1) (ite (|dff#1| state) (|dff#2| state) #b0)) 
(define-fun |dff#4| ((state |dff_s|)) (_ BitVec 1) (ite (= ((_ extract 0 0) (|dff#3| state)) #b1) #b0 (ite (|dff#0| state) #b1 #b0))) 
(define-fun |dff#5| ((state |dff_s|)) (_ BitVec 1) (bvnot (|dff#4| state))) 

(define-fun |dff_n Q| ((state |dff_s|)) Bool (= ((_ extract 0 0) (|dff#5| state)) #b1))
(define-fun |dff_a| ((state |dff_s|)) Bool true)
(define-fun |dff_u| ((state |dff_s|)) Bool true)
(define-fun |dff_i| ((state |dff_s|)) Bool true)
(define-fun |dff_h| ((state |dff_s|)) Bool true)
(define-fun |dff_t| ((state |dff_s|) (next_state |dff_s|)) Bool true) 

(declare-sort |s386_s| 0)
(declare-fun |s386_is| (|s386_s|) Bool)
(declare-fun |s386#0| (|s386_s|) Bool) 


(define-fun |s386_n CK| ((state |s386_s|)) Bool (|s386#0| state))
(declare-fun |s386#1| (|s386_s|) Bool) 


(define-fun |s386_n GND| ((state |s386_s|)) Bool (|s386#1| state))
(declare-fun |s386#2| (|s386_s|) Bool) 


(define-fun |s386_n VDD| ((state |s386_s|)) Bool (|s386#2| state))
(declare-fun |s386#3| (|s386_s|) Bool) 


(define-fun |s386_n v0| ((state |s386_s|)) Bool (|s386#3| state))
(declare-fun |s386#4| (|s386_s|) Bool) 


(define-fun |s386_n v1| ((state |s386_s|)) Bool (|s386#4| state))


(declare-fun |s386#5| (|s386_s|) Bool) 
(declare-fun |s386_h DFF_3| (|s386_s|) |dff_s|)


(declare-fun |s386#6| (|s386_s|) Bool) 
(declare-fun |s386_h DFF_1| (|s386_s|) |dff_s|)
(define-fun |s386#7| ((state |s386_s|)) (_ BitVec 1) (bvnot (ite (|s386#6| state) #b1 #b0))) 
(define-fun |s386#8| ((state |s386_s|)) (_ BitVec 1) (bvand (ite (|s386#5| state) #b1 #b0) (|s386#7| state))) 


(declare-fun |s386#9| (|s386_s|) Bool) 
(declare-fun |s386_h DFF_0| (|s386_s|) |dff_s|)
(define-fun |s386#10| ((state |s386_s|)) (_ BitVec 1) (bvnot (ite (|s386#9| state) #b1 #b0))) 
(define-fun |s386#11| ((state |s386_s|)) (_ BitVec 1) (bvand (|s386#8| state) (|s386#10| state))) 
(declare-fun |s386#12| (|s386_s|) (_ BitVec 1)) 
(define-fun |s386#13| ((state |s386_s|)) (_ BitVec 1) (bvand (ite (|s386#3| state) #b1 #b0) (|s386#12| state))) 


(declare-fun |s386#14| (|s386_s|) Bool) 
(declare-fun |s386_h DFF_2| (|s386_s|) |dff_s|)
(define-fun |s386#15| ((state |s386_s|)) (_ BitVec 1) (bvnot (ite (|s386#14| state) #b1 #b0))) 
(define-fun |s386#16| ((state |s386_s|)) (_ BitVec 1) (bvor (|s386#13| state) (|s386#15| state))) 
(define-fun |s386#17| ((state |s386_s|)) (_ BitVec 1) (bvand (|s386#16| state) (ite (|s386#4| state) #b1 #b0))) 


(declare-fun |s386#18| (|s386_s|) Bool) 
(declare-fun |s386_h DFF_5| (|s386_s|) |dff_s|)
(define-fun |s386#19| ((state |s386_s|)) (_ BitVec 1) (bvnot (ite (|s386#18| state) #b1 #b0))) 
(define-fun |s386#20| ((state |s386_s|)) (_ BitVec 1) (bvand (|s386#17| state) (|s386#19| state))) 


(declare-fun |s386#21| (|s386_s|) Bool) 
(declare-fun |s386_h DFF_4| (|s386_s|) |dff_s|)
(define-fun |s386#22| ((state |s386_s|)) (_ BitVec 1) (bvnot (ite (|s386#21| state) #b1 #b0))) 
(define-fun |s386#23| ((state |s386_s|)) (_ BitVec 1) (bvand (|s386#20| state) (|s386#22| state))) 
(define-fun |s386#24| ((state |s386_s|)) (_ BitVec 1) (bvand (|s386#11| state) (|s386#23| state))) 

(define-fun |s386_n v13_D_10| ((state |s386_s|)) Bool (= ((_ extract 0 0) (|s386#24| state)) #b1))
(define-fun |s386#25| ((state |s386_s|)) (_ BitVec 1) (bvand (ite (|s386#18| state) #b1 #b0) (ite (|s386#6| state) #b1 #b0))) 
(declare-fun |s386#26| (|s386_s|) (_ BitVec 1)) 
(define-fun |s386#27| ((state |s386_s|)) (_ BitVec 1) (bvnot (|s386#26| state))) 
(declare-fun |s386#28| (|s386_s|) (_ BitVec 1)) 
(define-fun |s386#29| ((state |s386_s|)) (_ BitVec 1) (bvnot (|s386#28| state))) 
(define-fun |s386#30| ((state |s386_s|)) (_ BitVec 1) (bvand (|s386#27| state) (|s386#29| state))) 
(define-fun |s386#31| ((state |s386_s|)) (_ BitVec 1) (bvand (|s386#30| state) (|s386#7| state))) 
(define-fun |s386#32| ((state |s386_s|)) (_ BitVec 1) (bvor (|s386#25| state) (|s386#31| state))) 
(define-fun |s386#33| ((state |s386_s|)) (_ BitVec 1) (bvand (|s386#32| state) (ite (|s386#21| state) #b1 #b0))) 
(define-fun |s386#34| ((state |s386_s|)) (_ BitVec 1) (bvand (|s386#33| state) (|s386#10| state))) 
(define-fun |s386#35| ((state |s386_s|)) (_ BitVec 1) (bvand (|s386#19| state) (|s386#22| state))) 
(define-fun |s386#36| ((state |s386_s|)) (_ BitVec 1) (bvor (|s386#35| state) (|s386#10| state))) 
(define-fun |s386#37| ((state |s386_s|)) (_ BitVec 1) (bvand (ite (|s386#4| state) #b1 #b0) (|s386#36| state))) 
(define-fun |s386#38| ((state |s386_s|)) (_ BitVec 1) (bvor (|s386#34| state) (|s386#37| state))) 
(define-fun |s386#39| ((state |s386_s|)) (_ BitVec 1) (bvand (|s386#38| state) (|s386#15| state))) 
(define-fun |s386#40| ((state |s386_s|)) (_ BitVec 1) (bvand (ite (|s386#14| state) #b1 #b0) (|s386#7| state))) 
(define-fun |s386#41| ((state |s386_s|)) (_ BitVec 1) (bvand (|s386#40| state) (|s386#10| state))) 
(define-fun |s386#42| ((state |s386_s|)) (_ BitVec 1) (bvand (ite (|s386#3| state) #b1 #b0) (|s386#19| state))) 
(define-fun |s386#43| ((state |s386_s|)) (_ BitVec 1) (bvand (|s386#42| state) (|s386#22| state))) 
(define-fun |s386#44| ((state |s386_s|)) (_ BitVec 1) (bvand (|s386#41| state) (|s386#43| state))) 
(define-fun |s386#45| ((state |s386_s|)) (_ BitVec 1) (bvor (|s386#39| state) (|s386#44| state))) 
(define-fun |s386#46| ((state |s386_s|)) (_ BitVec 1) (bvnot (ite (|s386#5| state) #b1 #b0))) 
(define-fun |s386#47| ((state |s386_s|)) (_ BitVec 1) (bvand (|s386#45| state) (|s386#46| state))) 
(define-fun |s386#48| ((state |s386_s|)) (_ BitVec 1) (bvnot (ite (|s386#3| state) #b1 #b0))) 
(define-fun |s386#49| ((state |s386_s|)) (_ BitVec 1) (bvand (|s386#48| state) (|s386#15| state))) 
(define-fun |s386#50| ((state |s386_s|)) (_ BitVec 1) (bvand (|s386#46| state) (|s386#10| state))) 
(define-fun |s386#51| ((state |s386_s|)) (_ BitVec 1) (bvor (|s386#35| state) (|s386#50| state))) 
(define-fun |s386#52| ((state |s386_s|)) (_ BitVec 1) (bvand (|s386#49| state) (|s386#51| state))) 
(define-fun |s386#53| ((state |s386_s|)) (_ BitVec 1) (bvor (|s386#47| state) (|s386#52| state))) 

(define-fun |s386_n v13_D_11| ((state |s386_s|)) Bool (= ((_ extract 0 0) (|s386#53| state)) #b1))
(define-fun |s386#54| ((state |s386_s|)) (_ BitVec 1) (bvand (|s386#48| state) (|s386#12| state))) 
(define-fun |s386#55| ((state |s386_s|)) (_ BitVec 1) (bvand (|s386#54| state) (|s386#19| state))) 
(define-fun |s386#56| ((state |s386_s|)) (_ BitVec 1) (bvand (|s386#55| state) (|s386#22| state))) 
(define-fun |s386#57| ((state |s386_s|)) (_ BitVec 1) (bvand (ite (|s386#5| state) #b1 #b0) (ite (|s386#14| state) #b1 #b0))) 
(define-fun |s386#58| ((state |s386_s|)) (_ BitVec 1) (bvand (|s386#57| state) (|s386#7| state))) 
(define-fun |s386#59| ((state |s386_s|)) (_ BitVec 1) (bvand (|s386#58| state) (|s386#10| state))) 
(define-fun |s386#60| ((state |s386_s|)) (_ BitVec 1) (bvand (|s386#56| state) (|s386#59| state))) 

(define-fun |s386_n v13_D_12| ((state |s386_s|)) Bool (= ((_ extract 0 0) (|s386#60| state)) #b1))
(define-fun |s386#61| ((state |s386_s|)) (_ BitVec 1) (bvand (|s386#46| state) (|s386#15| state))) 
(define-fun |s386#62| ((state |s386_s|)) (_ BitVec 1) (bvand (ite (|s386#6| state) #b1 #b0) (ite (|s386#9| state) #b1 #b0))) 
(define-fun |s386#63| ((state |s386_s|)) (_ BitVec 1) (bvand (|s386#12| state) (|s386#19| state))) 
(define-fun |s386#64| ((state |s386_s|)) (_ BitVec 1) (bvand (|s386#63| state) (|s386#22| state))) 
(define-fun |s386#65| ((state |s386_s|)) (_ BitVec 1) (bvand (|s386#62| state) (|s386#64| state))) 
(declare-fun |s386#66| (|s386_s|) (_ BitVec 1)) 
(define-fun |s386#67| ((state |s386_s|)) (_ BitVec 1) (bvor (|s386#66| state) (ite (|s386#18| state) #b1 #b0))) 
(define-fun |s386#68| ((state |s386_s|)) (_ BitVec 1) (bvor (|s386#22| state) (|s386#26| state))) 
(define-fun |s386#69| ((state |s386_s|)) (_ BitVec 1) (bvand (|s386#67| state) (|s386#68| state))) 
(define-fun |s386#70| ((state |s386_s|)) (_ BitVec 1) (bvand (|s386#28| state) (ite (|s386#18| state) #b1 #b0))) 
(define-fun |s386#71| ((state |s386_s|)) (_ BitVec 1) (bvor (|s386#69| state) (|s386#70| state))) 
(define-fun |s386#72| ((state |s386_s|)) (_ BitVec 1) (bvand (|s386#71| state) (|s386#7| state))) 
(define-fun |s386#73| ((state |s386_s|)) (_ BitVec 1) (bvand (|s386#72| state) (|s386#10| state))) 
(define-fun |s386#74| ((state |s386_s|)) (_ BitVec 1) (bvor (|s386#65| state) (|s386#73| state))) 
(define-fun |s386#75| ((state |s386_s|)) (_ BitVec 1) (bvand (|s386#74| state) (ite (|s386#3| state) #b1 #b0))) 
(define-fun |s386#76| ((state |s386_s|)) (_ BitVec 1) (bvnot (ite (|s386#4| state) #b1 #b0))) 
(define-fun |s386#77| ((state |s386_s|)) (_ BitVec 1) (bvand (|s386#75| state) (|s386#76| state))) 
(define-fun |s386#78| ((state |s386_s|)) (_ BitVec 1) (bvand (|s386#61| state) (|s386#77| state))) 

(define-fun |s386_n v13_D_6| ((state |s386_s|)) Bool (= ((_ extract 0 0) (|s386#78| state)) #b1))
(define-fun |s386#79| ((state |s386_s|)) (_ BitVec 1) (bvand (|s386#61| state) (|s386#10| state))) 
(define-fun |s386#80| ((state |s386_s|)) (_ BitVec 1) (bvand (|s386#29| state) (|s386#7| state))) 
(define-fun |s386#81| ((state |s386_s|)) (_ BitVec 1) (bvnot (|s386#68| state))) 
(define-fun |s386#82| ((state |s386_s|)) (_ BitVec 1) (bvand (|s386#80| state) (|s386#81| state))) 
(define-fun |s386#83| ((state |s386_s|)) (_ BitVec 1) (bvand (ite (|s386#18| state) #b1 #b0) (|s386#22| state))) 
(define-fun |s386#84| ((state |s386_s|)) (_ BitVec 1) (bvand (|s386#83| state) (ite (|s386#6| state) #b1 #b0))) 
(define-fun |s386#85| ((state |s386_s|)) (_ BitVec 1) (bvor (|s386#82| state) (|s386#84| state))) 
(define-fun |s386#86| ((state |s386_s|)) (_ BitVec 1) (bvand (|s386#85| state) (ite (|s386#3| state) #b1 #b0))) 
(define-fun |s386#87| ((state |s386_s|)) (_ BitVec 1) (bvand (|s386#86| state) (|s386#76| state))) 
(define-fun |s386#88| ((state |s386_s|)) (_ BitVec 1) (bvand (|s386#79| state) (|s386#87| state))) 

(define-fun |s386_n v13_D_7| ((state |s386_s|)) Bool (= ((_ extract 0 0) (|s386#88| state)) #b1))
(declare-fun |s386#89| (|s386_s|) (_ BitVec 1)) 
(define-fun |s386#90| ((state |s386_s|)) (_ BitVec 1) (bvnot (|s386#89| state))) 
(define-fun |s386#91| ((state |s386_s|)) (_ BitVec 1) (bvand (ite (|s386#3| state) #b1 #b0) (|s386#90| state))) 
(define-fun |s386#92| ((state |s386_s|)) (_ BitVec 1) (bvand (|s386#91| state) (|s386#19| state))) 
(define-fun |s386#93| ((state |s386_s|)) (_ BitVec 1) (bvand (|s386#92| state) (|s386#22| state))) 
(define-fun |s386#94| ((state |s386_s|)) (_ BitVec 1) (bvand (|s386#46| state) (ite (|s386#14| state) #b1 #b0))) 
(define-fun |s386#95| ((state |s386_s|)) (_ BitVec 1) (bvand (|s386#94| state) (|s386#7| state))) 
(define-fun |s386#96| ((state |s386_s|)) (_ BitVec 1) (bvand (|s386#95| state) (|s386#10| state))) 
(define-fun |s386#97| ((state |s386_s|)) (_ BitVec 1) (bvand (|s386#93| state) (|s386#96| state))) 

(define-fun |s386_n v13_D_8| ((state |s386_s|)) Bool (= ((_ extract 0 0) (|s386#97| state)) #b1))
(define-fun |s386#98| ((state |s386_s|)) (_ BitVec 1) (bvand (|s386#7| state) (|s386#10| state))) 
(define-fun |s386#99| ((state |s386_s|)) (_ BitVec 1) (bvand (|s386#76| state) (|s386#28| state))) 
(define-fun |s386#100| ((state |s386_s|)) (_ BitVec 1) (bvand (|s386#99| state) (|s386#15| state))) 
(define-fun |s386#101| ((state |s386_s|)) (_ BitVec 1) (bvand (|s386#100| state) (|s386#81| state))) 
(define-fun |s386#102| ((state |s386_s|)) (_ BitVec 1) (bvand (ite (|s386#3| state) #b1 #b0) (|s386#22| state))) 
(define-fun |s386#103| ((state |s386_s|)) (_ BitVec 1) (bvand (|s386#102| state) (ite (|s386#14| state) #b1 #b0))) 
(define-fun |s386#104| ((state |s386_s|)) (_ BitVec 1) (bvor (|s386#101| state) (|s386#103| state))) 
(define-fun |s386#105| ((state |s386_s|)) (_ BitVec 1) (bvand (|s386#104| state) (|s386#19| state))) 
(define-fun |s386#106| ((state |s386_s|)) (_ BitVec 1) (bvand (|s386#105| state) (|s386#46| state))) 
(define-fun |s386#107| ((state |s386_s|)) (_ BitVec 1) (bvand (|s386#98| state) (|s386#106| state))) 

(define-fun |s386_n v13_D_9| ((state |s386_s|)) Bool (= ((_ extract 0 0) (|s386#107| state)) #b1))


(define-fun |s386_n v2| ((state |s386_s|)) Bool (= ((_ extract 0 0) (|s386#66| state)) #b1))


(define-fun |s386_n v3| ((state |s386_s|)) Bool (= ((_ extract 0 0) (|s386#26| state)) #b1))


(define-fun |s386_n v4| ((state |s386_s|)) Bool (= ((_ extract 0 0) (|s386#28| state)) #b1))


(define-fun |s386_n v5| ((state |s386_s|)) Bool (= ((_ extract 0 0) (|s386#12| state)) #b1))


(define-fun |s386_n v6| ((state |s386_s|)) Bool (= ((_ extract 0 0) (|s386#89| state)) #b1))
(define-fun |s386#108| ((state |s386_s|)) (_ BitVec 1) (bvor (|s386#19| state) (|s386#22| state))) 
(define-fun |s386#109| ((state |s386_s|)) (_ BitVec 1) (bvand (|s386#108| state) (ite (|s386#6| state) #b1 #b0))) 
(define-fun |s386#110| ((state |s386_s|)) (_ BitVec 1) (bvor (|s386#82| state) (|s386#109| state))) 
(define-fun |s386#111| ((state |s386_s|)) (_ BitVec 1) (bvand (|s386#110| state) (ite (|s386#3| state) #b1 #b0))) 
(define-fun |s386#112| ((state |s386_s|)) (_ BitVec 1) (bvand (|s386#111| state) (|s386#76| state))) 
(define-fun |s386#113| ((state |s386_s|)) (_ BitVec 1) (bvand (|s386#79| state) (|s386#112| state))) 
(define-fun |s386#114| ((state |s386_s|)) (_ BitVec 1) (bvand (|s386#12| state) (ite (|s386#18| state) #b1 #b0))) 
(define-fun |s386#115| ((state |s386_s|)) (_ BitVec 1) (bvand (|s386#114| state) (|s386#22| state))) 
(define-fun |s386#116| ((state |s386_s|)) (_ BitVec 1) (bvand (|s386#115| state) (ite (|s386#6| state) #b1 #b0))) 
(define-fun |s386#117| ((state |s386_s|)) (_ BitVec 1) (bvand (|s386#26| state) (ite (|s386#21| state) #b1 #b0))) 
(define-fun |s386#118| ((state |s386_s|)) (_ BitVec 1) (bvnot (|s386#67| state))) 
(define-fun |s386#119| ((state |s386_s|)) (_ BitVec 1) (bvand (ite (|s386#18| state) #b1 #b0) (|s386#7| state))) 
(define-fun |s386#120| ((state |s386_s|)) (_ BitVec 1) (bvor (|s386#118| state) (|s386#119| state))) 
(define-fun |s386#121| ((state |s386_s|)) (_ BitVec 1) (bvand (|s386#117| state) (|s386#120| state))) 
(define-fun |s386#122| ((state |s386_s|)) (_ BitVec 1) (bvor (|s386#116| state) (|s386#121| state))) 
(define-fun |s386#123| ((state |s386_s|)) (_ BitVec 1) (bvand (|s386#28| state) (|s386#7| state))) 
(define-fun |s386#124| ((state |s386_s|)) (_ BitVec 1) (bvand (|s386#66| state) (|s386#22| state))) 
(define-fun |s386#125| ((state |s386_s|)) (_ BitVec 1) (bvor (ite (|s386#18| state) #b1 #b0) (|s386#124| state))) 
(define-fun |s386#126| ((state |s386_s|)) (_ BitVec 1) (bvand (|s386#123| state) (|s386#125| state))) 
(define-fun |s386#127| ((state |s386_s|)) (_ BitVec 1) (bvor (|s386#122| state) (|s386#126| state))) 
(define-fun |s386#128| ((state |s386_s|)) (_ BitVec 1) (bvand (|s386#127| state) (|s386#10| state))) 
(define-fun |s386#129| ((state |s386_s|)) (_ BitVec 1) (bvand (|s386#22| state) (|s386#7| state))) 
(define-fun |s386#130| ((state |s386_s|)) (_ BitVec 1) (bvand (|s386#129| state) (ite (|s386#9| state) #b1 #b0))) 
(define-fun |s386#131| ((state |s386_s|)) (_ BitVec 1) (bvand (ite (|s386#21| state) #b1 #b0) (ite (|s386#6| state) #b1 #b0))) 
(define-fun |s386#132| ((state |s386_s|)) (_ BitVec 1) (bvand (|s386#131| state) (|s386#10| state))) 
(define-fun |s386#133| ((state |s386_s|)) (_ BitVec 1) (bvor (|s386#130| state) (|s386#132| state))) 
(define-fun |s386#134| ((state |s386_s|)) (_ BitVec 1) (bvand (|s386#19| state) (|s386#133| state))) 
(define-fun |s386#135| ((state |s386_s|)) (_ BitVec 1) (bvor (|s386#128| state) (|s386#134| state))) 
(define-fun |s386#136| ((state |s386_s|)) (_ BitVec 1) (bvand (|s386#135| state) (ite (|s386#3| state) #b1 #b0))) 
(define-fun |s386#137| ((state |s386_s|)) (_ BitVec 1) (bvand (|s386#136| state) (|s386#76| state))) 
(define-fun |s386#138| ((state |s386_s|)) (_ BitVec 1) (bvand (|s386#61| state) (|s386#137| state))) 
(define-fun |s386#139| ((state |s386_s|)) (_ BitVec 1) (bvand (ite (|s386#3| state) #b1 #b0) (|s386#7| state))) 
(define-fun |s386#140| ((state |s386_s|)) (_ BitVec 1) (bvand (|s386#139| state) (|s386#10| state))) 
(define-fun |s386#141| ((state |s386_s|)) (_ BitVec 1) (bvor (|s386#61| state) (|s386#140| state))) 
(define-fun |s386#142| ((state |s386_s|)) (_ BitVec 1) (bvand (|s386#141| state) (|s386#19| state))) 
(define-fun |s386#143| ((state |s386_s|)) (_ BitVec 1) (bvand (|s386#142| state) (|s386#22| state))) 
(define-fun |s386#144| ((state |s386_s|)) (_ BitVec 1) (bvor (|s386#143| state) (|s386#79| state))) 
(define-fun |s386#145| ((state |s386_s|)) (_ BitVec 1) (bvand (|s386#144| state) (ite (|s386#4| state) #b1 #b0))) 
(define-fun |s386#146| ((state |s386_s|)) (_ BitVec 1) (bvnot (|s386#12| state))) 
(define-fun |s386#147| ((state |s386_s|)) (_ BitVec 1) (bvand (|s386#146| state) (ite (|s386#5| state) #b1 #b0))) 
(define-fun |s386#148| ((state |s386_s|)) (_ BitVec 1) (bvand (|s386#147| state) (|s386#7| state))) 
(define-fun |s386#149| ((state |s386_s|)) (_ BitVec 1) (bvand (|s386#148| state) (|s386#10| state))) 
(define-fun |s386#150| ((state |s386_s|)) (_ BitVec 1) (bvor (|s386#15| state) (|s386#149| state))) 
(define-fun |s386#151| ((state |s386_s|)) (_ BitVec 1) (bvand (|s386#150| state) (|s386#19| state))) 
(define-fun |s386#152| ((state |s386_s|)) (_ BitVec 1) (bvand (|s386#151| state) (|s386#22| state))) 
(define-fun |s386#153| ((state |s386_s|)) (_ BitVec 1) (bvor (|s386#152| state) (|s386#79| state))) 
(define-fun |s386#154| ((state |s386_s|)) (_ BitVec 1) (bvand (|s386#48| state) (|s386#153| state))) 
(define-fun |s386#155| ((state |s386_s|)) (_ BitVec 1) (bvor (|s386#145| state) (|s386#154| state))) 
(define-fun |s386#156| ((state |s386_s|)) (_ BitVec 1) (bvand (|s386#146| state) (|s386#19| state))) 
(define-fun |s386#157| ((state |s386_s|)) (_ BitVec 1) (bvand (|s386#156| state) (|s386#22| state))) 
(define-fun |s386#158| ((state |s386_s|)) (_ BitVec 1) (bvand (|s386#40| state) (|s386#157| state))) 
(define-fun |s386#159| ((state |s386_s|)) (_ BitVec 1) (bvor (|s386#61| state) (|s386#158| state))) 
(define-fun |s386#160| ((state |s386_s|)) (_ BitVec 1) (bvand (|s386#159| state) (ite (|s386#4| state) #b1 #b0))) 
(define-fun |s386#161| ((state |s386_s|)) (_ BitVec 1) (bvand (|s386#48| state) (|s386#46| state))) 
(define-fun |s386#162| ((state |s386_s|)) (_ BitVec 1) (bvand (|s386#161| state) (|s386#15| state))) 
(define-fun |s386#163| ((state |s386_s|)) (_ BitVec 1) (bvor (|s386#160| state) (|s386#162| state))) 
(define-fun |s386#164| ((state |s386_s|)) (_ BitVec 1) (bvand (|s386#163| state) (|s386#10| state))) 
(define-fun |s386#165| ((state |s386_s|)) (_ BitVec 1) (bvor (|s386#15| state) (|s386#98| state))) 
(define-fun |s386#166| ((state |s386_s|)) (_ BitVec 1) (bvand (|s386#35| state) (|s386#165| state))) 
(define-fun |s386#167| ((state |s386_s|)) (_ BitVec 1) (bvand (ite (|s386#4| state) #b1 #b0) (|s386#46| state))) 
(define-fun |s386#168| ((state |s386_s|)) (_ BitVec 1) (bvor (|s386#48| state) (|s386#167| state))) 
(define-fun |s386#169| ((state |s386_s|)) (_ BitVec 1) (bvand (|s386#166| state) (|s386#168| state))) 
(define-fun |s386#170| ((state |s386_s|)) (_ BitVec 1) (bvor (|s386#164| state) (|s386#169| state))) 
(define-fun |s386#171| ((state |s386_s|)) (_ BitVec 1) (bvor (|s386#82| state) (ite (|s386#18| state) #b1 #b0))) 
(define-fun |s386#172| ((state |s386_s|)) (_ BitVec 1) (bvand (|s386#171| state) (|s386#10| state))) 
(define-fun |s386#173| ((state |s386_s|)) (_ BitVec 1) (bvand (|s386#66| state) (|s386#7| state))) 
(define-fun |s386#174| ((state |s386_s|)) (_ BitVec 1) (bvand (|s386#173| state) (|s386#10| state))) 
(define-fun |s386#175| ((state |s386_s|)) (_ BitVec 1) (bvand (|s386#156| state) (ite (|s386#6| state) #b1 #b0))) 
(define-fun |s386#176| ((state |s386_s|)) (_ BitVec 1) (bvand (|s386#175| state) (ite (|s386#9| state) #b1 #b0))) 
(define-fun |s386#177| ((state |s386_s|)) (_ BitVec 1) (bvor (|s386#174| state) (|s386#176| state))) 
(define-fun |s386#178| ((state |s386_s|)) (_ BitVec 1) (bvand (|s386#22| state) (|s386#177| state))) 
(define-fun |s386#179| ((state |s386_s|)) (_ BitVec 1) (bvor (|s386#172| state) (|s386#178| state))) 
(define-fun |s386#180| ((state |s386_s|)) (_ BitVec 1) (bvand (|s386#179| state) (ite (|s386#3| state) #b1 #b0))) 
(define-fun |s386#181| ((state |s386_s|)) (_ BitVec 1) (bvand (|s386#180| state) (|s386#76| state))) 
(define-fun |s386#182| ((state |s386_s|)) (_ BitVec 1) (bvand (|s386#61| state) (|s386#181| state))) 
(define-fun |s386#183| ((state |s386_s|)) (_ BitVec 1) (bvand (ite (|s386#6| state) #b1 #b0) (|s386#10| state))) 
(define-fun |s386#184| ((state |s386_s|)) (_ BitVec 1) (bvnot (|s386#108| state))) 
(define-fun |s386#185| ((state |s386_s|)) (_ BitVec 1) (bvand (|s386#183| state) (|s386#184| state))) 
(define-fun |s386#186| ((state |s386_s|)) (_ BitVec 1) (bvand (|s386#22| state) (ite (|s386#6| state) #b1 #b0))) 
(define-fun |s386#187| ((state |s386_s|)) (_ BitVec 1) (bvand (|s386#186| state) (ite (|s386#9| state) #b1 #b0))) 
(define-fun |s386#188| ((state |s386_s|)) (_ BitVec 1) (bvand (|s386#66| state) (|s386#26| state))) 
(define-fun |s386#189| ((state |s386_s|)) (_ BitVec 1) (bvand (|s386#188| state) (ite (|s386#21| state) #b1 #b0))) 
(define-fun |s386#190| ((state |s386_s|)) (_ BitVec 1) (bvand (|s386#98| state) (|s386#189| state))) 
(define-fun |s386#191| ((state |s386_s|)) (_ BitVec 1) (bvor (|s386#187| state) (|s386#190| state))) 
(define-fun |s386#192| ((state |s386_s|)) (_ BitVec 1) (bvand (|s386#191| state) (|s386#19| state))) 
(define-fun |s386#193| ((state |s386_s|)) (_ BitVec 1) (bvor (|s386#185| state) (|s386#192| state))) 
(define-fun |s386#194| ((state |s386_s|)) (_ BitVec 1) (bvand (|s386#193| state) (ite (|s386#3| state) #b1 #b0))) 
(define-fun |s386#195| ((state |s386_s|)) (_ BitVec 1) (bvand (|s386#194| state) (|s386#76| state))) 
(define-fun |s386#196| ((state |s386_s|)) (_ BitVec 1) (bvand (|s386#61| state) (|s386#195| state))) 
(define-fun |s386_a| ((state |s386_s|)) Bool (and
  (|dff_a| (|s386_h DFF_5| state))
  (|dff_a| (|s386_h DFF_4| state))
  (|dff_a| (|s386_h DFF_3| state))
  (|dff_a| (|s386_h DFF_2| state))
  (|dff_a| (|s386_h DFF_1| state))
  (|dff_a| (|s386_h DFF_0| state))
))
(define-fun |s386_u| ((state |s386_s|)) Bool (and
  (|dff_u| (|s386_h DFF_5| state))
  (|dff_u| (|s386_h DFF_4| state))
  (|dff_u| (|s386_h DFF_3| state))
  (|dff_u| (|s386_h DFF_2| state))
  (|dff_u| (|s386_h DFF_1| state))
  (|dff_u| (|s386_h DFF_0| state))
))
(define-fun |s386_i| ((state |s386_s|)) Bool (and
  (|dff_i| (|s386_h DFF_5| state))
  (|dff_i| (|s386_h DFF_4| state))
  (|dff_i| (|s386_h DFF_3| state))
  (|dff_i| (|s386_h DFF_2| state))
  (|dff_i| (|s386_h DFF_1| state))
  (|dff_i| (|s386_h DFF_0| state))
))
(define-fun |s386_h| ((state |s386_s|)) Bool (and
  (= (|s386_is| state) (|dff_is| (|s386_h DFF_5| state)))
  (= (|s386#0| state) (|dff_n CK| (|s386_h DFF_5| state))) 
  (= (= ((_ extract 0 0) (|s386#113| state)) #b1) (|dff_n D| (|s386_h DFF_5| state))) 
  (= (|s386#18| state) (|dff_n Q| (|s386_h DFF_5| state))) 
  (= (|s386_is| state) (|dff_is| (|s386_h DFF_4| state)))
  (= (|s386#0| state) (|dff_n CK| (|s386_h DFF_4| state))) 
  (= (= ((_ extract 0 0) (|s386#138| state)) #b1) (|dff_n D| (|s386_h DFF_4| state))) 
  (= (|s386#21| state) (|dff_n Q| (|s386_h DFF_4| state))) 
  (= (|s386_is| state) (|dff_is| (|s386_h DFF_3| state)))
  (= (|s386#0| state) (|dff_n CK| (|s386_h DFF_3| state))) 
  (= (= ((_ extract 0 0) (|s386#155| state)) #b1) (|dff_n D| (|s386_h DFF_3| state))) 
  (= (|s386#5| state) (|dff_n Q| (|s386_h DFF_3| state))) 
  (= (|s386_is| state) (|dff_is| (|s386_h DFF_2| state)))
  (= (|s386#0| state) (|dff_n CK| (|s386_h DFF_2| state))) 
  (= (= ((_ extract 0 0) (|s386#170| state)) #b1) (|dff_n D| (|s386_h DFF_2| state))) 
  (= (|s386#14| state) (|dff_n Q| (|s386_h DFF_2| state))) 
  (= (|s386_is| state) (|dff_is| (|s386_h DFF_1| state)))
  (= (|s386#0| state) (|dff_n CK| (|s386_h DFF_1| state))) 
  (= (= ((_ extract 0 0) (|s386#182| state)) #b1) (|dff_n D| (|s386_h DFF_1| state))) 
  (= (|s386#6| state) (|dff_n Q| (|s386_h DFF_1| state))) 
  (= (|s386_is| state) (|dff_is| (|s386_h DFF_0| state)))
  (= (|s386#0| state) (|dff_n CK| (|s386_h DFF_0| state))) 
  (= (= ((_ extract 0 0) (|s386#196| state)) #b1) (|dff_n D| (|s386_h DFF_0| state))) 
  (= (|s386#9| state) (|dff_n Q| (|s386_h DFF_0| state))) 
  (|dff_h| (|s386_h DFF_5| state))
  (|dff_h| (|s386_h DFF_4| state))
  (|dff_h| (|s386_h DFF_3| state))
  (|dff_h| (|s386_h DFF_2| state))
  (|dff_h| (|s386_h DFF_1| state))
  (|dff_h| (|s386_h DFF_0| state))
))
(define-fun |s386_t| ((state |s386_s|) (next_state |s386_s|)) Bool (and
  (|dff_t| (|s386_h DFF_5| state) (|s386_h DFF_5| next_state))
  (|dff_t| (|s386_h DFF_4| state) (|s386_h DFF_4| next_state))
  (|dff_t| (|s386_h DFF_3| state) (|s386_h DFF_3| next_state))
  (|dff_t| (|s386_h DFF_2| state) (|s386_h DFF_2| next_state))
  (|dff_t| (|s386_h DFF_1| state) (|s386_h DFF_1| next_state))
  (|dff_t| (|s386_h DFF_0| state) (|s386_h DFF_0| next_state))
)) 

